p cnf 125 1573
1 2 3 4 5 0
6 7 8 9 10 0
11 12 13 14 15 0
16 17 18 19 20 0
21 22 23 24 25 0
26 27 28 29 30 0
31 32 33 34 35 0
36 37 38 39 40 0
41 42 43 44 45 0
46 47 48 49 50 0
51 52 53 54 55 0
56 57 58 59 60 0
61 62 63 64 65 0
66 67 68 69 70 0
71 72 73 74 75 0
76 77 78 79 80 0
81 82 83 84 85 0
86 87 88 89 90 0
91 92 93 94 95 0
96 97 98 99 100 0
101 102 103 104 105 0
106 107 108 109 110 0
111 112 113 114 115 0
116 117 118 119 120 0
121 122 123 124 125 0
-1 -6 0
-1 -11 0
-1 -16 0
-1 -21 0
-6 -11 0
-6 -16 0
-6 -21 0
-11 -16 0
-11 -21 0
-16 -21 0
-2 -7 0
-2 -12 0
-2 -17 0
-2 -22 0
-7 -12 0
-7 -17 0
-7 -22 0
-12 -17 0
-12 -22 0
-17 -22 0
-3 -8 0
-3 -13 0
-3 -18 0
-3 -23 0
-8 -13 0
-8 -18 0
-8 -23 0
-13 -18 0
-13 -23 0
-18 -23 0
-4 -9 0
-4 -14 0
-4 -19 0
-4 -24 0
-9 -14 0
-9 -19 0
-9 -24 0
-14 -19 0
-14 -24 0
-19 -24 0
-5 -10 0
-5 -15 0
-5 -20 0
-5 -25 0
-10 -15 0
-10 -20 0
-10 -25 0
-15 -20 0
-15 -25 0
-20 -25 0
-26 -31 0
-26 -36 0
-26 -41 0
-26 -46 0
-31 -36 0
-31 -41 0
-31 -46 0
-36 -41 0
-36 -46 0
-41 -46 0
-27 -32 0
-27 -37 0
-27 -42 0
-27 -47 0
-32 -37 0
-32 -42 0
-32 -47 0
-37 -42 0
-37 -47 0
-42 -47 0
-28 -33 0
-28 -38 0
-28 -43 0
-28 -48 0
-33 -38 0
-33 -43 0
-33 -48 0
-38 -43 0
-38 -48 0
-43 -48 0
-29 -34 0
-29 -39 0
-29 -44 0
-29 -49 0
-34 -39 0
-34 -44 0
-34 -49 0
-39 -44 0
-39 -49 0
-44 -49 0
-30 -35 0
-30 -40 0
-30 -45 0
-30 -50 0
-35 -40 0
-35 -45 0
-35 -50 0
-40 -45 0
-40 -50 0
-45 -50 0
-51 -56 0
-51 -61 0
-51 -66 0
-51 -71 0
-56 -61 0
-56 -66 0
-56 -71 0
-61 -66 0
-61 -71 0
-66 -71 0
-52 -57 0
-52 -62 0
-52 -67 0
-52 -72 0
-57 -62 0
-57 -67 0
-57 -72 0
-62 -67 0
-62 -72 0
-67 -72 0
-53 -58 0
-53 -63 0
-53 -68 0
-53 -73 0
-58 -63 0
-58 -68 0
-58 -73 0
-63 -68 0
-63 -73 0
-68 -73 0
-54 -59 0
-54 -64 0
-54 -69 0
-54 -74 0
-59 -64 0
-59 -69 0
-59 -74 0
-64 -69 0
-64 -74 0
-69 -74 0
-55 -60 0
-55 -65 0
-55 -70 0
-55 -75 0
-60 -65 0
-60 -70 0
-60 -75 0
-65 -70 0
-65 -75 0
-70 -75 0
-76 -81 0
-76 -86 0
-76 -91 0
-76 -96 0
-81 -86 0
-81 -91 0
-81 -96 0
-86 -91 0
-86 -96 0
-91 -96 0
-77 -82 0
-77 -87 0
-77 -92 0
-77 -97 0
-82 -87 0
-82 -92 0
-82 -97 0
-87 -92 0
-87 -97 0
-92 -97 0
-78 -83 0
-78 -88 0
-78 -93 0
-78 -98 0
-83 -88 0
-83 -93 0
-83 -98 0
-88 -93 0
-88 -98 0
-93 -98 0
-79 -84 0
-79 -89 0
-79 -94 0
-79 -99 0
-84 -89 0
-84 -94 0
-84 -99 0
-89 -94 0
-89 -99 0
-94 -99 0
-80 -85 0
-80 -90 0
-80 -95 0
-80 -100 0
-85 -90 0
-85 -95 0
-85 -100 0
-90 -95 0
-90 -100 0
-95 -100 0
-101 -106 0
-101 -111 0
-101 -116 0
-101 -121 0
-106 -111 0
-106 -116 0
-106 -121 0
-111 -116 0
-111 -121 0
-116 -121 0
-102 -107 0
-102 -112 0
-102 -117 0
-102 -122 0
-107 -112 0
-107 -117 0
-107 -122 0
-112 -117 0
-112 -122 0
-117 -122 0
-103 -108 0
-103 -113 0
-103 -118 0
-103 -123 0
-108 -113 0
-108 -118 0
-108 -123 0
-113 -118 0
-113 -123 0
-118 -123 0
-104 -109 0
-104 -114 0
-104 -119 0
-104 -124 0
-109 -114 0
-109 -119 0
-109 -124 0
-114 -119 0
-114 -124 0
-119 -124 0
-105 -110 0
-105 -115 0
-105 -120 0
-105 -125 0
-110 -115 0
-110 -120 0
-110 -125 0
-115 -120 0
-115 -125 0
-120 -125 0
31 32 33 34 35 0
31 32 33 34 15 0
31 32 33 14 35 0
31 32 33 14 15 0
31 32 13 34 35 0
31 32 13 34 15 0
31 32 13 14 35 0
31 32 13 14 15 0
31 12 33 34 35 0
31 12 33 34 15 0
31 12 33 14 35 0
31 12 33 14 15 0
31 12 13 34 35 0
31 12 13 34 15 0
31 12 13 14 35 0
31 12 13 14 15 0
11 32 33 34 35 0
11 32 33 34 15 0
11 32 33 14 35 0
11 32 33 14 15 0
11 32 13 34 35 0
11 32 13 34 15 0
11 32 13 14 35 0
11 32 13 14 15 0
11 12 33 34 35 0
11 12 33 34 15 0
11 12 33 14 35 0
11 12 33 14 15 0
11 12 13 34 35 0
11 12 13 34 15 0
11 12 13 14 35 0
11 12 13 14 15 0
46 47 48 49 50 0
46 47 48 49 115 0
46 47 48 114 50 0
46 47 48 114 115 0
46 47 113 49 50 0
46 47 113 49 115 0
46 47 113 114 50 0
46 47 113 114 115 0
46 112 48 49 50 0
46 112 48 49 115 0
46 112 48 114 50 0
46 112 48 114 115 0
46 112 113 49 50 0
46 112 113 49 115 0
46 112 113 114 50 0
46 112 113 114 115 0
111 47 48 49 50 0
111 47 48 49 115 0
111 47 48 114 50 0
111 47 48 114 115 0
111 47 113 49 50 0
111 47 113 49 115 0
111 47 113 114 50 0
111 47 113 114 115 0
111 112 48 49 50 0
111 112 48 49 115 0
111 112 48 114 50 0
111 112 48 114 115 0
111 112 113 49 50 0
111 112 113 49 115 0
111 112 113 114 50 0
111 112 113 114 115 0
26 27 28 29 30 0
26 27 28 29 70 0
26 27 28 69 30 0
26 27 28 69 70 0
26 27 68 29 30 0
26 27 68 29 70 0
26 27 68 69 30 0
26 27 68 69 70 0
26 67 28 29 30 0
26 67 28 29 70 0
26 67 28 69 30 0
26 67 28 69 70 0
26 67 68 29 30 0
26 67 68 29 70 0
26 67 68 69 30 0
26 67 68 69 70 0
66 27 28 29 30 0
66 27 28 29 70 0
66 27 28 69 30 0
66 27 28 69 70 0
66 27 68 29 30 0
66 27 68 29 70 0
66 27 68 69 30 0
66 27 68 69 70 0
66 67 28 29 30 0
66 67 28 29 70 0
66 67 28 69 30 0
66 67 28 69 70 0
66 67 68 29 30 0
66 67 68 29 70 0
66 67 68 69 30 0
66 67 68 69 70 0
6 7 8 9 0
6 7 8 20 0
6 7 19 9 0
6 7 19 20 0
6 18 8 9 0
6 18 8 20 0
6 18 19 9 0
6 18 19 20 0
17 7 8 9 0
17 7 8 20 0
17 7 19 9 0
17 7 19 20 0
17 18 8 9 0
17 18 8 20 0
17 18 19 9 0
17 18 19 20 0
6 7 8 9 10 0
6 7 8 9 60 0
6 7 8 59 10 0
6 7 8 59 60 0
6 7 58 9 10 0
6 7 58 9 60 0
6 7 58 59 10 0
6 7 58 59 60 0
6 57 8 9 10 0
6 57 8 9 60 0
6 57 8 59 10 0
6 57 8 59 60 0
6 57 58 9 10 0
6 57 58 9 60 0
6 57 58 59 10 0
6 57 58 59 60 0
56 7 8 9 10 0
56 7 8 9 60 0
56 7 8 59 10 0
56 7 8 59 60 0
56 7 58 9 10 0
56 7 58 9 60 0
56 7 58 59 10 0
56 7 58 59 60 0
56 57 8 9 10 0
56 57 8 9 60 0
56 57 8 59 10 0
56 57 8 59 60 0
56 57 58 9 10 0
56 57 58 9 60 0
56 57 58 59 10 0
56 57 58 59 60 0
91 92 93 94 95 0
91 92 93 94 105 0
91 92 93 104 95 0
91 92 93 104 105 0
91 92 103 94 95 0
91 92 103 94 105 0
91 92 103 104 95 0
91 92 103 104 105 0
91 102 93 94 95 0
91 102 93 94 105 0
91 102 93 104 95 0
91 102 93 104 105 0
91 102 103 94 95 0
91 102 103 94 105 0
91 102 103 104 95 0
91 102 103 104 105 0
101 92 93 94 95 0
101 92 93 94 105 0
101 92 93 104 95 0
101 92 93 104 105 0
101 92 103 94 95 0
101 92 103 94 105 0
101 92 103 104 95 0
101 92 103 104 105 0
101 102 93 94 95 0
101 102 93 94 105 0
101 102 93 104 95 0
101 102 93 104 105 0
101 102 103 94 95 0
101 102 103 94 105 0
101 102 103 104 95 0
101 102 103 104 105 0
21 22 23 24 25 0
21 22 23 24 90 0
21 22 23 89 25 0
21 22 23 89 90 0
21 22 88 24 25 0
21 22 88 24 90 0
21 22 88 89 25 0
21 22 88 89 90 0
21 87 23 24 25 0
21 87 23 24 90 0
21 87 23 89 25 0
21 87 23 89 90 0
21 87 88 24 25 0
21 87 88 24 90 0
21 87 88 89 25 0
21 87 88 89 90 0
86 22 23 24 25 0
86 22 23 24 90 0
86 22 23 89 25 0
86 22 23 89 90 0
86 22 88 24 25 0
86 22 88 24 90 0
86 22 88 89 25 0
86 22 88 89 90 0
86 87 23 24 25 0
86 87 23 24 90 0
86 87 23 89 25 0
86 87 23 89 90 0
86 87 88 24 25 0
86 87 88 24 90 0
86 87 88 89 25 0
86 87 88 89 90 0
63 0
41 0
76 77 78 79 106 107 108 109 0
76 77 78 79 106 107 108 80 0
76 77 78 79 106 107 79 109 0
76 77 78 79 106 107 79 80 0
76 77 78 79 106 78 108 109 0
76 77 78 79 106 78 108 80 0
76 77 78 79 106 78 79 109 0
76 77 78 79 106 78 79 80 0
76 77 78 79 77 107 108 109 0
76 77 78 79 77 107 108 80 0
76 77 78 79 77 107 79 109 0
76 77 78 79 77 107 79 80 0
76 77 78 79 77 78 108 109 0
76 77 78 79 77 78 108 80 0
76 77 78 79 77 78 79 109 0
76 77 78 79 77 78 79 80 0
76 77 78 110 106 107 108 109 0
76 77 78 110 106 107 108 80 0
76 77 78 110 106 107 79 109 0
76 77 78 110 106 107 79 80 0
76 77 78 110 106 78 108 109 0
76 77 78 110 106 78 108 80 0
76 77 78 110 106 78 79 109 0
76 77 78 110 106 78 79 80 0
76 77 78 110 77 107 108 109 0
76 77 78 110 77 107 108 80 0
76 77 78 110 77 107 79 109 0
76 77 78 110 77 107 79 80 0
76 77 78 110 77 78 108 109 0
76 77 78 110 77 78 108 80 0
76 77 78 110 77 78 79 109 0
76 77 78 110 77 78 79 80 0
76 77 109 79 106 107 108 109 0
76 77 109 79 106 107 108 80 0
76 77 109 79 106 107 79 109 0
76 77 109 79 106 107 79 80 0
76 77 109 79 106 78 108 109 0
76 77 109 79 106 78 108 80 0
76 77 109 79 106 78 79 109 0
76 77 109 79 106 78 79 80 0
76 77 109 79 77 107 108 109 0
76 77 109 79 77 107 108 80 0
76 77 109 79 77 107 79 109 0
76 77 109 79 77 107 79 80 0
76 77 109 79 77 78 108 109 0
76 77 109 79 77 78 108 80 0
76 77 109 79 77 78 79 109 0
76 77 109 79 77 78 79 80 0
76 77 109 110 106 107 108 109 0
76 77 109 110 106 107 108 80 0
76 77 109 110 106 107 79 109 0
76 77 109 110 106 107 79 80 0
76 77 109 110 106 78 108 109 0
76 77 109 110 106 78 108 80 0
76 77 109 110 106 78 79 109 0
76 77 109 110 106 78 79 80 0
76 77 109 110 77 107 108 109 0
76 77 109 110 77 107 108 80 0
76 77 109 110 77 107 79 109 0
76 77 109 110 77 107 79 80 0
76 77 109 110 77 78 108 109 0
76 77 109 110 77 78 108 80 0
76 77 109 110 77 78 79 109 0
76 77 109 110 77 78 79 80 0
76 108 78 79 106 107 108 109 0
76 108 78 79 106 107 108 80 0
76 108 78 79 106 107 79 109 0
76 108 78 79 106 107 79 80 0
76 108 78 79 106 78 108 109 0
76 108 78 79 106 78 108 80 0
76 108 78 79 106 78 79 109 0
76 108 78 79 106 78 79 80 0
76 108 78 79 77 107 108 109 0
76 108 78 79 77 107 108 80 0
76 108 78 79 77 107 79 109 0
76 108 78 79 77 107 79 80 0
76 108 78 79 77 78 108 109 0
76 108 78 79 77 78 108 80 0
76 108 78 79 77 78 79 109 0
76 108 78 79 77 78 79 80 0
76 108 78 110 106 107 108 109 0
76 108 78 110 106 107 108 80 0
76 108 78 110 106 107 79 109 0
76 108 78 110 106 107 79 80 0
76 108 78 110 106 78 108 109 0
76 108 78 110 106 78 108 80 0
76 108 78 110 106 78 79 109 0
76 108 78 110 106 78 79 80 0
76 108 78 110 77 107 108 109 0
76 108 78 110 77 107 108 80 0
76 108 78 110 77 107 79 109 0
76 108 78 110 77 107 79 80 0
76 108 78 110 77 78 108 109 0
76 108 78 110 77 78 108 80 0
76 108 78 110 77 78 79 109 0
76 108 78 110 77 78 79 80 0
76 108 109 79 106 107 108 109 0
76 108 109 79 106 107 108 80 0
76 108 109 79 106 107 79 109 0
76 108 109 79 106 107 79 80 0
76 108 109 79 106 78 108 109 0
76 108 109 79 106 78 108 80 0
76 108 109 79 106 78 79 109 0
76 108 109 79 106 78 79 80 0
76 108 109 79 77 107 108 109 0
76 108 109 79 77 107 108 80 0
76 108 109 79 77 107 79 109 0
76 108 109 79 77 107 79 80 0
76 108 109 79 77 78 108 109 0
76 108 109 79 77 78 108 80 0
76 108 109 79 77 78 79 109 0
76 108 109 79 77 78 79 80 0
76 108 109 110 106 107 108 109 0
76 108 109 110 106 107 108 80 0
76 108 109 110 106 107 79 109 0
76 108 109 110 106 107 79 80 0
76 108 109 110 106 78 108 109 0
76 108 109 110 106 78 108 80 0
76 108 109 110 106 78 79 109 0
76 108 109 110 106 78 79 80 0
76 108 109 110 77 107 108 109 0
76 108 109 110 77 107 108 80 0
76 108 109 110 77 107 79 109 0
76 108 109 110 77 107 79 80 0
76 108 109 110 77 78 108 109 0
76 108 109 110 77 78 108 80 0
76 108 109 110 77 78 79 109 0
76 108 109 110 77 78 79 80 0
107 77 78 79 106 107 108 109 0
107 77 78 79 106 107 108 80 0
107 77 78 79 106 107 79 109 0
107 77 78 79 106 107 79 80 0
107 77 78 79 106 78 108 109 0
107 77 78 79 106 78 108 80 0
107 77 78 79 106 78 79 109 0
107 77 78 79 106 78 79 80 0
107 77 78 79 77 107 108 109 0
107 77 78 79 77 107 108 80 0
107 77 78 79 77 107 79 109 0
107 77 78 79 77 107 79 80 0
107 77 78 79 77 78 108 109 0
107 77 78 79 77 78 108 80 0
107 77 78 79 77 78 79 109 0
107 77 78 79 77 78 79 80 0
107 77 78 110 106 107 108 109 0
107 77 78 110 106 107 108 80 0
107 77 78 110 106 107 79 109 0
107 77 78 110 106 107 79 80 0
107 77 78 110 106 78 108 109 0
107 77 78 110 106 78 108 80 0
107 77 78 110 106 78 79 109 0
107 77 78 110 106 78 79 80 0
107 77 78 110 77 107 108 109 0
107 77 78 110 77 107 108 80 0
107 77 78 110 77 107 79 109 0
107 77 78 110 77 107 79 80 0
107 77 78 110 77 78 108 109 0
107 77 78 110 77 78 108 80 0
107 77 78 110 77 78 79 109 0
107 77 78 110 77 78 79 80 0
107 77 109 79 106 107 108 109 0
107 77 109 79 106 107 108 80 0
107 77 109 79 106 107 79 109 0
107 77 109 79 106 107 79 80 0
107 77 109 79 106 78 108 109 0
107 77 109 79 106 78 108 80 0
107 77 109 79 106 78 79 109 0
107 77 109 79 106 78 79 80 0
107 77 109 79 77 107 108 109 0
107 77 109 79 77 107 108 80 0
107 77 109 79 77 107 79 109 0
107 77 109 79 77 107 79 80 0
107 77 109 79 77 78 108 109 0
107 77 109 79 77 78 108 80 0
107 77 109 79 77 78 79 109 0
107 77 109 79 77 78 79 80 0
107 77 109 110 106 107 108 109 0
107 77 109 110 106 107 108 80 0
107 77 109 110 106 107 79 109 0
107 77 109 110 106 107 79 80 0
107 77 109 110 106 78 108 109 0
107 77 109 110 106 78 108 80 0
107 77 109 110 106 78 79 109 0
107 77 109 110 106 78 79 80 0
107 77 109 110 77 107 108 109 0
107 77 109 110 77 107 108 80 0
107 77 109 110 77 107 79 109 0
107 77 109 110 77 107 79 80 0
107 77 109 110 77 78 108 109 0
107 77 109 110 77 78 108 80 0
107 77 109 110 77 78 79 109 0
107 77 109 110 77 78 79 80 0
107 108 78 79 106 107 108 109 0
107 108 78 79 106 107 108 80 0
107 108 78 79 106 107 79 109 0
107 108 78 79 106 107 79 80 0
107 108 78 79 106 78 108 109 0
107 108 78 79 106 78 108 80 0
107 108 78 79 106 78 79 109 0
107 108 78 79 106 78 79 80 0
107 108 78 79 77 107 108 109 0
107 108 78 79 77 107 108 80 0
107 108 78 79 77 107 79 109 0
107 108 78 79 77 107 79 80 0
107 108 78 79 77 78 108 109 0
107 108 78 79 77 78 108 80 0
107 108 78 79 77 78 79 109 0
107 108 78 79 77 78 79 80 0
107 108 78 110 106 107 108 109 0
107 108 78 110 106 107 108 80 0
107 108 78 110 106 107 79 109 0
107 108 78 110 106 107 79 80 0
107 108 78 110 106 78 108 109 0
107 108 78 110 106 78 108 80 0
107 108 78 110 106 78 79 109 0
107 108 78 110 106 78 79 80 0
107 108 78 110 77 107 108 109 0
107 108 78 110 77 107 108 80 0
107 108 78 110 77 107 79 109 0
107 108 78 110 77 107 79 80 0
107 108 78 110 77 78 108 109 0
107 108 78 110 77 78 108 80 0
107 108 78 110 77 78 79 109 0
107 108 78 110 77 78 79 80 0
107 108 109 79 106 107 108 109 0
107 108 109 79 106 107 108 80 0
107 108 109 79 106 107 79 109 0
107 108 109 79 106 107 79 80 0
107 108 109 79 106 78 108 109 0
107 108 109 79 106 78 108 80 0
107 108 109 79 106 78 79 109 0
107 108 109 79 106 78 79 80 0
107 108 109 79 77 107 108 109 0
107 108 109 79 77 107 108 80 0
107 108 109 79 77 107 79 109 0
107 108 109 79 77 107 79 80 0
107 108 109 79 77 78 108 109 0
107 108 109 79 77 78 108 80 0
107 108 109 79 77 78 79 109 0
107 108 109 79 77 78 79 80 0
107 108 109 110 106 107 108 109 0
107 108 109 110 106 107 108 80 0
107 108 109 110 106 107 79 109 0
107 108 109 110 106 107 79 80 0
107 108 109 110 106 78 108 109 0
107 108 109 110 106 78 108 80 0
107 108 109 110 106 78 79 109 0
107 108 109 110 106 78 79 80 0
107 108 109 110 77 107 108 109 0
107 108 109 110 77 107 108 80 0
107 108 109 110 77 107 79 109 0
107 108 109 110 77 107 79 80 0
107 108 109 110 77 78 108 109 0
107 108 109 110 77 78 108 80 0
107 108 109 110 77 78 79 109 0
107 108 109 110 77 78 79 80 0
121 122 123 124 86 87 88 89 0
121 122 123 124 86 87 88 125 0
121 122 123 124 86 87 124 89 0
121 122 123 124 86 87 124 125 0
121 122 123 124 86 123 88 89 0
121 122 123 124 86 123 88 125 0
121 122 123 124 86 123 124 89 0
121 122 123 124 86 123 124 125 0
121 122 123 124 122 87 88 89 0
121 122 123 124 122 87 88 125 0
121 122 123 124 122 87 124 89 0
121 122 123 124 122 87 124 125 0
121 122 123 124 122 123 88 89 0
121 122 123 124 122 123 88 125 0
121 122 123 124 122 123 124 89 0
121 122 123 124 122 123 124 125 0
121 122 123 90 86 87 88 89 0
121 122 123 90 86 87 88 125 0
121 122 123 90 86 87 124 89 0
121 122 123 90 86 87 124 125 0
121 122 123 90 86 123 88 89 0
121 122 123 90 86 123 88 125 0
121 122 123 90 86 123 124 89 0
121 122 123 90 86 123 124 125 0
121 122 123 90 122 87 88 89 0
121 122 123 90 122 87 88 125 0
121 122 123 90 122 87 124 89 0
121 122 123 90 122 87 124 125 0
121 122 123 90 122 123 88 89 0
121 122 123 90 122 123 88 125 0
121 122 123 90 122 123 124 89 0
121 122 123 90 122 123 124 125 0
121 122 89 124 86 87 88 89 0
121 122 89 124 86 87 88 125 0
121 122 89 124 86 87 124 89 0
121 122 89 124 86 87 124 125 0
121 122 89 124 86 123 88 89 0
121 122 89 124 86 123 88 125 0
121 122 89 124 86 123 124 89 0
121 122 89 124 86 123 124 125 0
121 122 89 124 122 87 88 89 0
121 122 89 124 122 87 88 125 0
121 122 89 124 122 87 124 89 0
121 122 89 124 122 87 124 125 0
121 122 89 124 122 123 88 89 0
121 122 89 124 122 123 88 125 0
121 122 89 124 122 123 124 89 0
121 122 89 124 122 123 124 125 0
121 122 89 90 86 87 88 89 0
121 122 89 90 86 87 88 125 0
121 122 89 90 86 87 124 89 0
121 122 89 90 86 87 124 125 0
121 122 89 90 86 123 88 89 0
121 122 89 90 86 123 88 125 0
121 122 89 90 86 123 124 89 0
121 122 89 90 86 123 124 125 0
121 122 89 90 122 87 88 89 0
121 122 89 90 122 87 88 125 0
121 122 89 90 122 87 124 89 0
121 122 89 90 122 87 124 125 0
121 122 89 90 122 123 88 89 0
121 122 89 90 122 123 88 125 0
121 122 89 90 122 123 124 89 0
121 122 89 90 122 123 124 125 0
121 88 123 124 86 87 88 89 0
121 88 123 124 86 87 88 125 0
121 88 123 124 86 87 124 89 0
121 88 123 124 86 87 124 125 0
121 88 123 124 86 123 88 89 0
121 88 123 124 86 123 88 125 0
121 88 123 124 86 123 124 89 0
121 88 123 124 86 123 124 125 0
121 88 123 124 122 87 88 89 0
121 88 123 124 122 87 88 125 0
121 88 123 124 122 87 124 89 0
121 88 123 124 122 87 124 125 0
121 88 123 124 122 123 88 89 0
121 88 123 124 122 123 88 125 0
121 88 123 124 122 123 124 89 0
121 88 123 124 122 123 124 125 0
121 88 123 90 86 87 88 89 0
121 88 123 90 86 87 88 125 0
121 88 123 90 86 87 124 89 0
121 88 123 90 86 87 124 125 0
121 88 123 90 86 123 88 89 0
121 88 123 90 86 123 88 125 0
121 88 123 90 86 123 124 89 0
121 88 123 90 86 123 124 125 0
121 88 123 90 122 87 88 89 0
121 88 123 90 122 87 88 125 0
121 88 123 90 122 87 124 89 0
121 88 123 90 122 87 124 125 0
121 88 123 90 122 123 88 89 0
121 88 123 90 122 123 88 125 0
121 88 123 90 122 123 124 89 0
121 88 123 90 122 123 124 125 0
121 88 89 124 86 87 88 89 0
121 88 89 124 86 87 88 125 0
121 88 89 124 86 87 124 89 0
121 88 89 124 86 87 124 125 0
121 88 89 124 86 123 88 89 0
121 88 89 124 86 123 88 125 0
121 88 89 124 86 123 124 89 0
121 88 89 124 86 123 124 125 0
121 88 89 124 122 87 88 89 0
121 88 89 124 122 87 88 125 0
121 88 89 124 122 87 124 89 0
121 88 89 124 122 87 124 125 0
121 88 89 124 122 123 88 89 0
121 88 89 124 122 123 88 125 0
121 88 89 124 122 123 124 89 0
121 88 89 124 122 123 124 125 0
121 88 89 90 86 87 88 89 0
121 88 89 90 86 87 88 125 0
121 88 89 90 86 87 124 89 0
121 88 89 90 86 87 124 125 0
121 88 89 90 86 123 88 89 0
121 88 89 90 86 123 88 125 0
121 88 89 90 86 123 124 89 0
121 88 89 90 86 123 124 125 0
121 88 89 90 122 87 88 89 0
121 88 89 90 122 87 88 125 0
121 88 89 90 122 87 124 89 0
121 88 89 90 122 87 124 125 0
121 88 89 90 122 123 88 89 0
121 88 89 90 122 123 88 125 0
121 88 89 90 122 123 124 89 0
121 88 89 90 122 123 124 125 0
87 122 123 124 86 87 88 89 0
87 122 123 124 86 87 88 125 0
87 122 123 124 86 87 124 89 0
87 122 123 124 86 87 124 125 0
87 122 123 124 86 123 88 89 0
87 122 123 124 86 123 88 125 0
87 122 123 124 86 123 124 89 0
87 122 123 124 86 123 124 125 0
87 122 123 124 122 87 88 89 0
87 122 123 124 122 87 88 125 0
87 122 123 124 122 87 124 89 0
87 122 123 124 122 87 124 125 0
87 122 123 124 122 123 88 89 0
87 122 123 124 122 123 88 125 0
87 122 123 124 122 123 124 89 0
87 122 123 124 122 123 124 125 0
87 122 123 90 86 87 88 89 0
87 122 123 90 86 87 88 125 0
87 122 123 90 86 87 124 89 0
87 122 123 90 86 87 124 125 0
87 122 123 90 86 123 88 89 0
87 122 123 90 86 123 88 125 0
87 122 123 90 86 123 124 89 0
87 122 123 90 86 123 124 125 0
87 122 123 90 122 87 88 89 0
87 122 123 90 122 87 88 125 0
87 122 123 90 122 87 124 89 0
87 122 123 90 122 87 124 125 0
87 122 123 90 122 123 88 89 0
87 122 123 90 122 123 88 125 0
87 122 123 90 122 123 124 89 0
87 122 123 90 122 123 124 125 0
87 122 89 124 86 87 88 89 0
87 122 89 124 86 87 88 125 0
87 122 89 124 86 87 124 89 0
87 122 89 124 86 87 124 125 0
87 122 89 124 86 123 88 89 0
87 122 89 124 86 123 88 125 0
87 122 89 124 86 123 124 89 0
87 122 89 124 86 123 124 125 0
87 122 89 124 122 87 88 89 0
87 122 89 124 122 87 88 125 0
87 122 89 124 122 87 124 89 0
87 122 89 124 122 87 124 125 0
87 122 89 124 122 123 88 89 0
87 122 89 124 122 123 88 125 0
87 122 89 124 122 123 124 89 0
87 122 89 124 122 123 124 125 0
87 122 89 90 86 87 88 89 0
87 122 89 90 86 87 88 125 0
87 122 89 90 86 87 124 89 0
87 122 89 90 86 87 124 125 0
87 122 89 90 86 123 88 89 0
87 122 89 90 86 123 88 125 0
87 122 89 90 86 123 124 89 0
87 122 89 90 86 123 124 125 0
87 122 89 90 122 87 88 89 0
87 122 89 90 122 87 88 125 0
87 122 89 90 122 87 124 89 0
87 122 89 90 122 87 124 125 0
87 122 89 90 122 123 88 89 0
87 122 89 90 122 123 88 125 0
87 122 89 90 122 123 124 89 0
87 122 89 90 122 123 124 125 0
87 88 123 124 86 87 88 89 0
87 88 123 124 86 87 88 125 0
87 88 123 124 86 87 124 89 0
87 88 123 124 86 87 124 125 0
87 88 123 124 86 123 88 89 0
87 88 123 124 86 123 88 125 0
87 88 123 124 86 123 124 89 0
87 88 123 124 86 123 124 125 0
87 88 123 124 122 87 88 89 0
87 88 123 124 122 87 88 125 0
87 88 123 124 122 87 124 89 0
87 88 123 124 122 87 124 125 0
87 88 123 124 122 123 88 89 0
87 88 123 124 122 123 88 125 0
87 88 123 124 122 123 124 89 0
87 88 123 124 122 123 124 125 0
87 88 123 90 86 87 88 89 0
87 88 123 90 86 87 88 125 0
87 88 123 90 86 87 124 89 0
87 88 123 90 86 87 124 125 0
87 88 123 90 86 123 88 89 0
87 88 123 90 86 123 88 125 0
87 88 123 90 86 123 124 89 0
87 88 123 90 86 123 124 125 0
87 88 123 90 122 87 88 89 0
87 88 123 90 122 87 88 125 0
87 88 123 90 122 87 124 89 0
87 88 123 90 122 87 124 125 0
87 88 123 90 122 123 88 89 0
87 88 123 90 122 123 88 125 0
87 88 123 90 122 123 124 89 0
87 88 123 90 122 123 124 125 0
87 88 89 124 86 87 88 89 0
87 88 89 124 86 87 88 125 0
87 88 89 124 86 87 124 89 0
87 88 89 124 86 87 124 125 0
87 88 89 124 86 123 88 89 0
87 88 89 124 86 123 88 125 0
87 88 89 124 86 123 124 89 0
87 88 89 124 86 123 124 125 0
87 88 89 124 122 87 88 89 0
87 88 89 124 122 87 88 125 0
87 88 89 124 122 87 124 89 0
87 88 89 124 122 87 124 125 0
87 88 89 124 122 123 88 89 0
87 88 89 124 122 123 88 125 0
87 88 89 124 122 123 124 89 0
87 88 89 124 122 123 124 125 0
87 88 89 90 86 87 88 89 0
87 88 89 90 86 87 88 125 0
87 88 89 90 86 87 124 89 0
87 88 89 90 86 87 124 125 0
87 88 89 90 86 123 88 89 0
87 88 89 90 86 123 88 125 0
87 88 89 90 86 123 124 89 0
87 88 89 90 86 123 124 125 0
87 88 89 90 122 87 88 89 0
87 88 89 90 122 87 88 125 0
87 88 89 90 122 87 124 89 0
87 88 89 90 122 87 124 125 0
87 88 89 90 122 123 88 89 0
87 88 89 90 122 123 88 125 0
87 88 89 90 122 123 124 89 0
87 88 89 90 122 123 124 125 0
81 82 83 84 85 0
81 82 83 84 55 0
81 82 83 54 85 0
81 82 83 54 55 0
81 82 53 84 85 0
81 82 53 84 55 0
81 82 53 54 85 0
81 82 53 54 55 0
81 52 83 84 85 0
81 52 83 84 55 0
81 52 83 54 85 0
81 52 83 54 55 0
81 52 53 84 85 0
81 52 53 84 55 0
81 52 53 54 85 0
81 52 53 54 55 0
51 82 83 84 85 0
51 82 83 84 55 0
51 82 83 54 85 0
51 82 83 54 55 0
51 82 53 84 85 0
51 82 53 84 55 0
51 82 53 54 85 0
51 82 53 54 55 0
51 52 83 84 85 0
51 52 83 84 55 0
51 52 83 54 85 0
51 52 83 54 55 0
51 52 53 84 85 0
51 52 53 84 55 0
51 52 53 54 85 0
51 52 53 54 55 0
36 37 38 39 40 0
36 37 38 39 100 0
36 37 38 99 40 0
36 37 38 99 100 0
36 37 98 39 40 0
36 37 98 39 100 0
36 37 98 99 40 0
36 37 98 99 100 0
36 97 38 39 40 0
36 97 38 39 100 0
36 97 38 99 40 0
36 97 38 99 100 0
36 97 98 39 40 0
36 97 98 39 100 0
36 97 98 99 40 0
36 97 98 99 100 0
96 37 38 39 40 0
96 37 38 39 100 0
96 37 38 99 40 0
96 37 38 99 100 0
96 37 98 39 40 0
96 37 98 39 100 0
96 37 98 99 40 0
96 37 98 99 100 0
96 97 38 39 40 0
96 97 38 39 100 0
96 97 38 99 40 0
96 97 38 99 100 0
96 97 98 39 40 0
96 97 98 39 100 0
96 97 98 99 40 0
96 97 98 99 100 0
41 42 43 44 1 2 3 4 0
41 42 43 44 1 2 3 45 0
41 42 43 44 1 2 44 4 0
41 42 43 44 1 2 44 45 0
41 42 43 44 1 43 3 4 0
41 42 43 44 1 43 3 45 0
41 42 43 44 1 43 44 4 0
41 42 43 44 1 43 44 45 0
41 42 43 44 42 2 3 4 0
41 42 43 44 42 2 3 45 0
41 42 43 44 42 2 44 4 0
41 42 43 44 42 2 44 45 0
41 42 43 44 42 43 3 4 0
41 42 43 44 42 43 3 45 0
41 42 43 44 42 43 44 4 0
41 42 43 44 42 43 44 45 0
41 42 43 5 1 2 3 4 0
41 42 43 5 1 2 3 45 0
41 42 43 5 1 2 44 4 0
41 42 43 5 1 2 44 45 0
41 42 43 5 1 43 3 4 0
41 42 43 5 1 43 3 45 0
41 42 43 5 1 43 44 4 0
41 42 43 5 1 43 44 45 0
41 42 43 5 42 2 3 4 0
41 42 43 5 42 2 3 45 0
41 42 43 5 42 2 44 4 0
41 42 43 5 42 2 44 45 0
41 42 43 5 42 43 3 4 0
41 42 43 5 42 43 3 45 0
41 42 43 5 42 43 44 4 0
41 42 43 5 42 43 44 45 0
41 42 4 44 1 2 3 4 0
41 42 4 44 1 2 3 45 0
41 42 4 44 1 2 44 4 0
41 42 4 44 1 2 44 45 0
41 42 4 44 1 43 3 4 0
41 42 4 44 1 43 3 45 0
41 42 4 44 1 43 44 4 0
41 42 4 44 1 43 44 45 0
41 42 4 44 42 2 3 4 0
41 42 4 44 42 2 3 45 0
41 42 4 44 42 2 44 4 0
41 42 4 44 42 2 44 45 0
41 42 4 44 42 43 3 4 0
41 42 4 44 42 43 3 45 0
41 42 4 44 42 43 44 4 0
41 42 4 44 42 43 44 45 0
41 42 4 5 1 2 3 4 0
41 42 4 5 1 2 3 45 0
41 42 4 5 1 2 44 4 0
41 42 4 5 1 2 44 45 0
41 42 4 5 1 43 3 4 0
41 42 4 5 1 43 3 45 0
41 42 4 5 1 43 44 4 0
41 42 4 5 1 43 44 45 0
41 42 4 5 42 2 3 4 0
41 42 4 5 42 2 3 45 0
41 42 4 5 42 2 44 4 0
41 42 4 5 42 2 44 45 0
41 42 4 5 42 43 3 4 0
41 42 4 5 42 43 3 45 0
41 42 4 5 42 43 44 4 0
41 42 4 5 42 43 44 45 0
41 3 43 44 1 2 3 4 0
41 3 43 44 1 2 3 45 0
41 3 43 44 1 2 44 4 0
41 3 43 44 1 2 44 45 0
41 3 43 44 1 43 3 4 0
41 3 43 44 1 43 3 45 0
41 3 43 44 1 43 44 4 0
41 3 43 44 1 43 44 45 0
41 3 43 44 42 2 3 4 0
41 3 43 44 42 2 3 45 0
41 3 43 44 42 2 44 4 0
41 3 43 44 42 2 44 45 0
41 3 43 44 42 43 3 4 0
41 3 43 44 42 43 3 45 0
41 3 43 44 42 43 44 4 0
41 3 43 44 42 43 44 45 0
41 3 43 5 1 2 3 4 0
41 3 43 5 1 2 3 45 0
41 3 43 5 1 2 44 4 0
41 3 43 5 1 2 44 45 0
41 3 43 5 1 43 3 4 0
41 3 43 5 1 43 3 45 0
41 3 43 5 1 43 44 4 0
41 3 43 5 1 43 44 45 0
41 3 43 5 42 2 3 4 0
41 3 43 5 42 2 3 45 0
41 3 43 5 42 2 44 4 0
41 3 43 5 42 2 44 45 0
41 3 43 5 42 43 3 4 0
41 3 43 5 42 43 3 45 0
41 3 43 5 42 43 44 4 0
41 3 43 5 42 43 44 45 0
41 3 4 44 1 2 3 4 0
41 3 4 44 1 2 3 45 0
41 3 4 44 1 2 44 4 0
41 3 4 44 1 2 44 45 0
41 3 4 44 1 43 3 4 0
41 3 4 44 1 43 3 45 0
41 3 4 44 1 43 44 4 0
41 3 4 44 1 43 44 45 0
41 3 4 44 42 2 3 4 0
41 3 4 44 42 2 3 45 0
41 3 4 44 42 2 44 4 0
41 3 4 44 42 2 44 45 0
41 3 4 44 42 43 3 4 0
41 3 4 44 42 43 3 45 0
41 3 4 44 42 43 44 4 0
41 3 4 44 42 43 44 45 0
41 3 4 5 1 2 3 4 0
41 3 4 5 1 2 3 45 0
41 3 4 5 1 2 44 4 0
41 3 4 5 1 2 44 45 0
41 3 4 5 1 43 3 4 0
41 3 4 5 1 43 3 45 0
41 3 4 5 1 43 44 4 0
41 3 4 5 1 43 44 45 0
41 3 4 5 42 2 3 4 0
41 3 4 5 42 2 3 45 0
41 3 4 5 42 2 44 4 0
41 3 4 5 42 2 44 45 0
41 3 4 5 42 43 3 4 0
41 3 4 5 42 43 3 45 0
41 3 4 5 42 43 44 4 0
41 3 4 5 42 43 44 45 0
2 42 43 44 1 2 3 4 0
2 42 43 44 1 2 3 45 0
2 42 43 44 1 2 44 4 0
2 42 43 44 1 2 44 45 0
2 42 43 44 1 43 3 4 0
2 42 43 44 1 43 3 45 0
2 42 43 44 1 43 44 4 0
2 42 43 44 1 43 44 45 0
2 42 43 44 42 2 3 4 0
2 42 43 44 42 2 3 45 0
2 42 43 44 42 2 44 4 0
2 42 43 44 42 2 44 45 0
2 42 43 44 42 43 3 4 0
2 42 43 44 42 43 3 45 0
2 42 43 44 42 43 44 4 0
2 42 43 44 42 43 44 45 0
2 42 43 5 1 2 3 4 0
2 42 43 5 1 2 3 45 0
2 42 43 5 1 2 44 4 0
2 42 43 5 1 2 44 45 0
2 42 43 5 1 43 3 4 0
2 42 43 5 1 43 3 45 0
2 42 43 5 1 43 44 4 0
2 42 43 5 1 43 44 45 0
2 42 43 5 42 2 3 4 0
2 42 43 5 42 2 3 45 0
2 42 43 5 42 2 44 4 0
2 42 43 5 42 2 44 45 0
2 42 43 5 42 43 3 4 0
2 42 43 5 42 43 3 45 0
2 42 43 5 42 43 44 4 0
2 42 43 5 42 43 44 45 0
2 42 4 44 1 2 3 4 0
2 42 4 44 1 2 3 45 0
2 42 4 44 1 2 44 4 0
2 42 4 44 1 2 44 45 0
2 42 4 44 1 43 3 4 0
2 42 4 44 1 43 3 45 0
2 42 4 44 1 43 44 4 0
2 42 4 44 1 43 44 45 0
2 42 4 44 42 2 3 4 0
2 42 4 44 42 2 3 45 0
2 42 4 44 42 2 44 4 0
2 42 4 44 42 2 44 45 0
2 42 4 44 42 43 3 4 0
2 42 4 44 42 43 3 45 0
2 42 4 44 42 43 44 4 0
2 42 4 44 42 43 44 45 0
2 42 4 5 1 2 3 4 0
2 42 4 5 1 2 3 45 0
2 42 4 5 1 2 44 4 0
2 42 4 5 1 2 44 45 0
2 42 4 5 1 43 3 4 0
2 42 4 5 1 43 3 45 0
2 42 4 5 1 43 44 4 0
2 42 4 5 1 43 44 45 0
2 42 4 5 42 2 3 4 0
2 42 4 5 42 2 3 45 0
2 42 4 5 42 2 44 4 0
2 42 4 5 42 2 44 45 0
2 42 4 5 42 43 3 4 0
2 42 4 5 42 43 3 45 0
2 42 4 5 42 43 44 4 0
2 42 4 5 42 43 44 45 0
2 3 43 44 1 2 3 4 0
2 3 43 44 1 2 3 45 0
2 3 43 44 1 2 44 4 0
2 3 43 44 1 2 44 45 0
2 3 43 44 1 43 3 4 0
2 3 43 44 1 43 3 45 0
2 3 43 44 1 43 44 4 0
2 3 43 44 1 43 44 45 0
2 3 43 44 42 2 3 4 0
2 3 43 44 42 2 3 45 0
2 3 43 44 42 2 44 4 0
2 3 43 44 42 2 44 45 0
2 3 43 44 42 43 3 4 0
2 3 43 44 42 43 3 45 0
2 3 43 44 42 43 44 4 0
2 3 43 44 42 43 44 45 0
2 3 43 5 1 2 3 4 0
2 3 43 5 1 2 3 45 0
2 3 43 5 1 2 44 4 0
2 3 43 5 1 2 44 45 0
2 3 43 5 1 43 3 4 0
2 3 43 5 1 43 3 45 0
2 3 43 5 1 43 44 4 0
2 3 43 5 1 43 44 45 0
2 3 43 5 42 2 3 4 0
2 3 43 5 42 2 3 45 0
2 3 43 5 42 2 44 4 0
2 3 43 5 42 2 44 45 0
2 3 43 5 42 43 3 4 0
2 3 43 5 42 43 3 45 0
2 3 43 5 42 43 44 4 0
2 3 43 5 42 43 44 45 0
2 3 4 44 1 2 3 4 0
2 3 4 44 1 2 3 45 0
2 3 4 44 1 2 44 4 0
2 3 4 44 1 2 44 45 0
2 3 4 44 1 43 3 4 0
2 3 4 44 1 43 3 45 0
2 3 4 44 1 43 44 4 0
2 3 4 44 1 43 44 45 0
2 3 4 44 42 2 3 4 0
2 3 4 44 42 2 3 45 0
2 3 4 44 42 2 44 4 0
2 3 4 44 42 2 44 45 0
2 3 4 44 42 43 3 4 0
2 3 4 44 42 43 3 45 0
2 3 4 44 42 43 44 4 0
2 3 4 44 42 43 44 45 0
2 3 4 5 1 2 3 4 0
2 3 4 5 1 2 3 45 0
2 3 4 5 1 2 44 4 0
2 3 4 5 1 2 44 45 0
2 3 4 5 1 43 3 4 0
2 3 4 5 1 43 3 45 0
2 3 4 5 1 43 44 4 0
2 3 4 5 1 43 44 45 0
2 3 4 5 42 2 3 4 0
2 3 4 5 42 2 3 45 0
2 3 4 5 42 2 44 4 0
2 3 4 5 42 2 44 45 0
2 3 4 5 42 43 3 4 0
2 3 4 5 42 43 3 45 0
2 3 4 5 42 43 44 4 0
2 3 4 5 42 43 44 45 0
76 77 78 79 71 72 73 74 0
76 77 78 79 71 72 73 80 0
76 77 78 79 71 72 79 74 0
76 77 78 79 71 72 79 80 0
76 77 78 79 71 78 73 74 0
76 77 78 79 71 78 73 80 0
76 77 78 79 71 78 79 74 0
76 77 78 79 71 78 79 80 0
76 77 78 79 77 72 73 74 0
76 77 78 79 77 72 73 80 0
76 77 78 79 77 72 79 74 0
76 77 78 79 77 72 79 80 0
76 77 78 79 77 78 73 74 0
76 77 78 79 77 78 73 80 0
76 77 78 79 77 78 79 74 0
76 77 78 79 77 78 79 80 0
76 77 78 75 71 72 73 74 0
76 77 78 75 71 72 73 80 0
76 77 78 75 71 72 79 74 0
76 77 78 75 71 72 79 80 0
76 77 78 75 71 78 73 74 0
76 77 78 75 71 78 73 80 0
76 77 78 75 71 78 79 74 0
76 77 78 75 71 78 79 80 0
76 77 78 75 77 72 73 74 0
76 77 78 75 77 72 73 80 0
76 77 78 75 77 72 79 74 0
76 77 78 75 77 72 79 80 0
76 77 78 75 77 78 73 74 0
76 77 78 75 77 78 73 80 0
76 77 78 75 77 78 79 74 0
76 77 78 75 77 78 79 80 0
76 77 74 79 71 72 73 74 0
76 77 74 79 71 72 73 80 0
76 77 74 79 71 72 79 74 0
76 77 74 79 71 72 79 80 0
76 77 74 79 71 78 73 74 0
76 77 74 79 71 78 73 80 0
76 77 74 79 71 78 79 74 0
76 77 74 79 71 78 79 80 0
76 77 74 79 77 72 73 74 0
76 77 74 79 77 72 73 80 0
76 77 74 79 77 72 79 74 0
76 77 74 79 77 72 79 80 0
76 77 74 79 77 78 73 74 0
76 77 74 79 77 78 73 80 0
76 77 74 79 77 78 79 74 0
76 77 74 79 77 78 79 80 0
76 77 74 75 71 72 73 74 0
76 77 74 75 71 72 73 80 0
76 77 74 75 71 72 79 74 0
76 77 74 75 71 72 79 80 0
76 77 74 75 71 78 73 74 0
76 77 74 75 71 78 73 80 0
76 77 74 75 71 78 79 74 0
76 77 74 75 71 78 79 80 0
76 77 74 75 77 72 73 74 0
76 77 74 75 77 72 73 80 0
76 77 74 75 77 72 79 74 0
76 77 74 75 77 72 79 80 0
76 77 74 75 77 78 73 74 0
76 77 74 75 77 78 73 80 0
76 77 74 75 77 78 79 74 0
76 77 74 75 77 78 79 80 0
76 73 78 79 71 72 73 74 0
76 73 78 79 71 72 73 80 0
76 73 78 79 71 72 79 74 0
76 73 78 79 71 72 79 80 0
76 73 78 79 71 78 73 74 0
76 73 78 79 71 78 73 80 0
76 73 78 79 71 78 79 74 0
76 73 78 79 71 78 79 80 0
76 73 78 79 77 72 73 74 0
76 73 78 79 77 72 73 80 0
76 73 78 79 77 72 79 74 0
76 73 78 79 77 72 79 80 0
76 73 78 79 77 78 73 74 0
76 73 78 79 77 78 73 80 0
76 73 78 79 77 78 79 74 0
76 73 78 79 77 78 79 80 0
76 73 78 75 71 72 73 74 0
76 73 78 75 71 72 73 80 0
76 73 78 75 71 72 79 74 0
76 73 78 75 71 72 79 80 0
76 73 78 75 71 78 73 74 0
76 73 78 75 71 78 73 80 0
76 73 78 75 71 78 79 74 0
76 73 78 75 71 78 79 80 0
76 73 78 75 77 72 73 74 0
76 73 78 75 77 72 73 80 0
76 73 78 75 77 72 79 74 0
76 73 78 75 77 72 79 80 0
76 73 78 75 77 78 73 74 0
76 73 78 75 77 78 73 80 0
76 73 78 75 77 78 79 74 0
76 73 78 75 77 78 79 80 0
76 73 74 79 71 72 73 74 0
76 73 74 79 71 72 73 80 0
76 73 74 79 71 72 79 74 0
76 73 74 79 71 72 79 80 0
76 73 74 79 71 78 73 74 0
76 73 74 79 71 78 73 80 0
76 73 74 79 71 78 79 74 0
76 73 74 79 71 78 79 80 0
76 73 74 79 77 72 73 74 0
76 73 74 79 77 72 73 80 0
76 73 74 79 77 72 79 74 0
76 73 74 79 77 72 79 80 0
76 73 74 79 77 78 73 74 0
76 73 74 79 77 78 73 80 0
76 73 74 79 77 78 79 74 0
76 73 74 79 77 78 79 80 0
76 73 74 75 71 72 73 74 0
76 73 74 75 71 72 73 80 0
76 73 74 75 71 72 79 74 0
76 73 74 75 71 72 79 80 0
76 73 74 75 71 78 73 74 0
76 73 74 75 71 78 73 80 0
76 73 74 75 71 78 79 74 0
76 73 74 75 71 78 79 80 0
76 73 74 75 77 72 73 74 0
76 73 74 75 77 72 73 80 0
76 73 74 75 77 72 79 74 0
76 73 74 75 77 72 79 80 0
76 73 74 75 77 78 73 74 0
76 73 74 75 77 78 73 80 0
76 73 74 75 77 78 79 74 0
76 73 74 75 77 78 79 80 0
72 77 78 79 71 72 73 74 0
72 77 78 79 71 72 73 80 0
72 77 78 79 71 72 79 74 0
72 77 78 79 71 72 79 80 0
72 77 78 79 71 78 73 74 0
72 77 78 79 71 78 73 80 0
72 77 78 79 71 78 79 74 0
72 77 78 79 71 78 79 80 0
72 77 78 79 77 72 73 74 0
72 77 78 79 77 72 73 80 0
72 77 78 79 77 72 79 74 0
72 77 78 79 77 72 79 80 0
72 77 78 79 77 78 73 74 0
72 77 78 79 77 78 73 80 0
72 77 78 79 77 78 79 74 0
72 77 78 79 77 78 79 80 0
72 77 78 75 71 72 73 74 0
72 77 78 75 71 72 73 80 0
72 77 78 75 71 72 79 74 0
72 77 78 75 71 72 79 80 0
72 77 78 75 71 78 73 74 0
72 77 78 75 71 78 73 80 0
72 77 78 75 71 78 79 74 0
72 77 78 75 71 78 79 80 0
72 77 78 75 77 72 73 74 0
72 77 78 75 77 72 73 80 0
72 77 78 75 77 72 79 74 0
72 77 78 75 77 72 79 80 0
72 77 78 75 77 78 73 74 0
72 77 78 75 77 78 73 80 0
72 77 78 75 77 78 79 74 0
72 77 78 75 77 78 79 80 0
72 77 74 79 71 72 73 74 0
72 77 74 79 71 72 73 80 0
72 77 74 79 71 72 79 74 0
72 77 74 79 71 72 79 80 0
72 77 74 79 71 78 73 74 0
72 77 74 79 71 78 73 80 0
72 77 74 79 71 78 79 74 0
72 77 74 79 71 78 79 80 0
72 77 74 79 77 72 73 74 0
72 77 74 79 77 72 73 80 0
72 77 74 79 77 72 79 74 0
72 77 74 79 77 72 79 80 0
72 77 74 79 77 78 73 74 0
72 77 74 79 77 78 73 80 0
72 77 74 79 77 78 79 74 0
72 77 74 79 77 78 79 80 0
72 77 74 75 71 72 73 74 0
72 77 74 75 71 72 73 80 0
72 77 74 75 71 72 79 74 0
72 77 74 75 71 72 79 80 0
72 77 74 75 71 78 73 74 0
72 77 74 75 71 78 73 80 0
72 77 74 75 71 78 79 74 0
72 77 74 75 71 78 79 80 0
72 77 74 75 77 72 73 74 0
72 77 74 75 77 72 73 80 0
72 77 74 75 77 72 79 74 0
72 77 74 75 77 72 79 80 0
72 77 74 75 77 78 73 74 0
72 77 74 75 77 78 73 80 0
72 77 74 75 77 78 79 74 0
72 77 74 75 77 78 79 80 0
72 73 78 79 71 72 73 74 0
72 73 78 79 71 72 73 80 0
72 73 78 79 71 72 79 74 0
72 73 78 79 71 72 79 80 0
72 73 78 79 71 78 73 74 0
72 73 78 79 71 78 73 80 0
72 73 78 79 71 78 79 74 0
72 73 78 79 71 78 79 80 0
72 73 78 79 77 72 73 74 0
72 73 78 79 77 72 73 80 0
72 73 78 79 77 72 79 74 0
72 73 78 79 77 72 79 80 0
72 73 78 79 77 78 73 74 0
72 73 78 79 77 78 73 80 0
72 73 78 79 77 78 79 74 0
72 73 78 79 77 78 79 80 0
72 73 78 75 71 72 73 74 0
72 73 78 75 71 72 73 80 0
72 73 78 75 71 72 79 74 0
72 73 78 75 71 72 79 80 0
72 73 78 75 71 78 73 74 0
72 73 78 75 71 78 73 80 0
72 73 78 75 71 78 79 74 0
72 73 78 75 71 78 79 80 0
72 73 78 75 77 72 73 74 0
72 73 78 75 77 72 73 80 0
72 73 78 75 77 72 79 74 0
72 73 78 75 77 72 79 80 0
72 73 78 75 77 78 73 74 0
72 73 78 75 77 78 73 80 0
72 73 78 75 77 78 79 74 0
72 73 78 75 77 78 79 80 0
72 73 74 79 71 72 73 74 0
72 73 74 79 71 72 73 80 0
72 73 74 79 71 72 79 74 0
72 73 74 79 71 72 79 80 0
72 73 74 79 71 78 73 74 0
72 73 74 79 71 78 73 80 0
72 73 74 79 71 78 79 74 0
72 73 74 79 71 78 79 80 0
72 73 74 79 77 72 73 74 0
72 73 74 79 77 72 73 80 0
72 73 74 79 77 72 79 74 0
72 73 74 79 77 72 79 80 0
72 73 74 79 77 78 73 74 0
72 73 74 79 77 78 73 80 0
72 73 74 79 77 78 79 74 0
72 73 74 79 77 78 79 80 0
72 73 74 75 71 72 73 74 0
72 73 74 75 71 72 73 80 0
72 73 74 75 71 72 79 74 0
72 73 74 75 71 72 79 80 0
72 73 74 75 71 78 73 74 0
72 73 74 75 71 78 73 80 0
72 73 74 75 71 78 79 74 0
72 73 74 75 71 78 79 80 0
72 73 74 75 77 72 73 74 0
72 73 74 75 77 72 73 80 0
72 73 74 75 77 72 79 74 0
72 73 74 75 77 72 79 80 0
72 73 74 75 77 78 73 74 0
72 73 74 75 77 78 73 80 0
72 73 74 75 77 78 79 74 0
72 73 74 75 77 78 79 80 0
